c description: Random 3-CNF over 19 variables and 81 clauses
c generator: CNFgen (0.9.2)
c copyright: (C) 2012-2022 Massimo Lauria <massimo.lauria@uniroma1.it>
c url: https://massimolauria.net/cnfgen
c command line: cnfgen --output CNF_4.28/19_bit_81_66.cnf randkcnf 3 19 81
c
p cnf 19 81
-8 -14 -19 0
-1 7 -16 0
-4 -10 16 0
1 -5 12 0
-7 13 19 0
1 -11 12 0
2 -11 17 0
-14 -15 18 0
-4 6 8 0
1 5 7 0
2 11 -12 0
14 17 -19 0
-1 17 -19 0
3 8 15 0
-3 -4 -8 0
-2 8 -11 0
5 -13 -19 0
14 -16 18 0
-1 -9 14 0
4 -8 15 0
8 11 13 0
-5 -6 16 0
8 -14 15 0
5 -18 -19 0
2 -12 -15 0
1 -4 6 0
9 14 -19 0
-8 -9 -12 0
-15 -16 -18 0
-8 -9 17 0
2 -5 7 0
-1 10 17 0
-1 3 -8 0
10 -11 -16 0
10 13 15 0
-8 9 -13 0
-6 -11 13 0
4 -12 13 0
-1 -6 -18 0
-7 10 -17 0
2 9 -18 0
-6 8 18 0
-4 13 16 0
-7 10 14 0
-2 -14 -17 0
2 11 17 0
-5 7 -8 0
7 -10 -17 0
11 12 -17 0
-4 6 17 0
-4 12 -17 0
1 -4 7 0
2 14 18 0
-6 -9 -14 0
10 13 -15 0
15 16 -19 0
2 -6 12 0
15 -16 19 0
10 -12 13 0
-3 -4 17 0
-7 -13 18 0
5 15 19 0
6 8 -15 0
7 -15 18 0
-5 -8 12 0
-8 -11 14 0
7 -10 -16 0
-5 13 16 0
-8 15 16 0
7 9 -13 0
1 7 10 0
5 -6 13 0
3 5 10 0
1 -14 -17 0
-4 -10 -19 0
2 -12 18 0
-8 13 -19 0
5 -10 -18 0
8 -11 12 0
9 14 15 0
-8 16 18 0
